WARNING: for repeatability, setting FPU to use double precision
============================[ Problem Statistics ]=============================
|                                                                             |
|  Number of variables:        233400                                         |
|  Number of clauses:          536868                                         |
|  Parse time:                   0.30 s                                       |
|                                                                             |
============================[ Search Statistics ]==============================
| Conflicts |          ORIGINAL         |          LEARNT          | Progress |
|           |    Vars  Clauses Literals |    Limit  Clauses Lit/Cl |          |
===============================================================================
|       100 |  128710   513543  1154796 |   188299      100      9 | 44.854 % |
|       250 |  128710   513543  1154796 |   207129      250     13 | 44.854 % |
|       475 |  128710   513543  1154796 |   227841      475     16 | 44.854 % |
|       812 |  128710   513543  1154796 |   250626      812     21 | 44.854 % |
|      1318 |  128710   513543  1154796 |   275688     1318     43 | 44.854 % |
|      2077 |  128710   513543  1154796 |   303257     2077     36 | 44.854 % |
|      3216 |  128710   513543  1154796 |   333583     3216     43 | 44.854 % |
|      4924 |  128710   513543  1154796 |   366941     4924     43 | 44.854 % |
===============================================================================
restarts              : 30
conflicts             : 6105           (1190 /sec)
decisions             : 103546         (0.00 % random) (20175 /sec)
propagations          : 18920488       (3686537 /sec)
conflict literals     : 295292         (3.78 % deleted)
Memory used           : 62.00 MB
CPU time              : 5.13232 s

SATISFIABLE
